max

obj:

+139.9 x0
+104.02 x1
+105.33 x2
+106.82 x3
+109.55 x4
+109.02 x5
+97.34 x6
+129.9 x7
+156.91 x8
+132.98 x9
+122.83 x10
+132.91 x11
+132.9 x12
+125.03 x13
+120.07 x14
+139.83 x15
+164.23 x16
+186.66 x17
+186.95 x18
+121.8 x19
+131.51 x20
+132.2 x21
+153.45 x22
+124.96 x23
+127.66 x24
+130.58 x25
+123.01 x26
+91.26 x27
+166.67 x28
+170.14 x29
+156.39 x30
+149.86 x31
+141.5 x32
+125.48 x33
+134.5 x34
+121.11 x35
+122.41 x36
+137.44 x37
+159.8 x38
+98.71 x39
+116.72 x40
+118.36 x41
+135.85 x42
+147.22 x43
+145.04 x44
+123.82 x45
+109.7 x46
+102.89 x47
+99.09 x48
+116.42 x49
+108.96 x50
+73.08 x51
+82.42 x52
+142.35 x53
+75.76 x54
+100.34 x55
+98.25 x56
+96.84 x57
+96.18 x58
+99.8 x59
+99.18 x60
+97.39 x61
+94.04 x62
+132.9 x63
+130.0 x64
+124.0 x65
+114.94 x66
+113.06 x67
+110.18 x68
+104.62 x69
+116.4 x70
+144.94 x71
+134.26 x72
+117.48 x73
+104.39 x74
+99.68 x75
+98.08 x76
+99.64 x77
+112.28 x78
+111.56 x79
+108.65 x80
+118.21 x81
+106.67 x82
+101.91 x83
+96.09 x84
+90.01 x85
+24.37 x86
+36.39 x87
+70.53 x88
+77.2 x89
+74.69 x90
+41.84 x91
+38.91 x92
+33.36 x93
+39.66 x94
+61.89 x95
+100.95 x96
+100.77 x97
+99.02 x98
+94.64 x99
+96.0 x100
+136.87 x101
+104.94 x102
+75.55 x103
+120.6 x104
+112.68 x105
+109.12 x106
+108.53 x107
+107.68 x108
+108.04 x109
+100.43 x110
+110.07 x111
+139.22 x112
+110.85 x113
+110.0 x114
+113.68 x115
+115.42 x116
+116.64 x117
+121.91 x118
+145.35 x119
+180.38 x120
+178.53 x121
+122.0 x122
+180.0 x123
+177.32 x124
+155.56 x125
+141.19 x126
+127.51 x127
+118.26 x128
+151.39 x129
+124.12 x130
+120.0 x131
+127.99 x132
+108.26 x133
+93.8 x134
+54.25 x135
+9.03 x136
+111.0 x137
+94.92 x138
+93.94 x139
+83.31 x140
+81.95 x141
+81.97 x142
+82.27 x143
+87.75 x144
+101.1 x145
+28.35 x146
+10.02 x147
+72.91 x148
+89.09 x149
+99.28 x150
+106.09 x151
+89.39 x152
+86.63 x153
+88.74 x154
+4.88 x155
+34.71 x156
+117.41 x157
+107.45 x158
+90.35 x159
+92.91 x160
+95.85 x161
+113.77 x162
+123.82 x163
+106.17 x164
+102.05 x165
+93.09 x166
+90.19 x167
+89.0 x168
+90.61 x169
+116.71 x170
+109.4 x171
+115.64 x172
+106.61 x173
+103.59 x174
+92.87 x175
+82.23 x176
+108.71 x177
+76.25 x178
+95.12 x179
+81.22 x180
+90.39 x181
+111.06 x182
+127.42 x183
+133.69 x184
+124.02 x185
+113.8 x186
+107.43 x187
+102.42 x188
+107.51 x189
+123.28 x190
+133.02 x191
+125.1 x192
+110.1 x193
+91.16 x194
+84.16 x195
+77.83 x196
+80.02 x197
+75.13 x198
+73.5 x199
+171.58 x200
+132.25 x201
+120.95 x202
+114.73 x203
+100.13 x204
+79.12 x205
+72.63 x206
+78.55 x207
+100.37 x208
+120.0 x209
+104.53 x210
+100.01 x211
+99.37 x212
+109.51 x213
+89.08 x214
+6.17 x215
+27.72 x216
+75.41 x217
+84.51 x218
+108.62 x219
+73.87 x220
+25.09 x221
+13.89 x222
+1.85 x223
+0.16 x224
+1.78 x225
+32.29 x226
+90.5 x227
+105.63 x228
+90.77 x229
+89.42 x230
+94.83 x231
+90.29 x232
+80.34 x233
+72.06 x234
+65.03 x235
+62.87 x236
+43.52 x237
+29.41 x238
+93.02 x239
+77.03 x240
+84.16 x241
+99.33 x242
+60.56 x243
+60.91 x244
+57.79 x245
+63.62 x246
+2.22 x247
+65.71 x248
+65.51 x249
+61.73 x250
+55.06 x251
+16.37 x252
+59.97 x254
+27.36 x255
+5.0 x256
+64.06 x258
+68.39 x259
+72.64 x260
+80.63 x261
+95.0 x262
+74.61 x263
+69.7 x264
+60.27 x265
+26.91 x266
+12.51 x267
+0.08 x268
-19.96 x269
-20.03 x270
+44.5 x271
+62.29 x272
+71.86 x273
+72.76 x274
+72.73 x275
+46.72 x276
+28.44 x277
+0.01 x278
-1.68 x279
-19.62 x280
-34.99 x281
-34.95 x282
-10.93 x283
-0.09 x284
+27.92 x285
+81.81 x286
+73.69 x287
+89.48 x288
+89.7 x289
+81.09 x290
+62.69 x291
+61.01 x292
+64.22 x293
+74.14 x294
+84.82 x295
+97.6 x296
+85.08 x297
+77.27 x298
+56.12 x299
+50.2 x300
+48.5 x301
+63.07 x302
+73.38 x303
+84.63 x304
+101.38 x305
+87.66 x306
+78.41 x307
+75.25 x308
+77.93 x309
+90.0 x310
+153.74 x311
+152.04 x312
+137.79 x313
+155.0 x314
+63.36 x315
+53.65 x316
+118.64 x317
+210.32 x318
+81.0 x319
+81.0 x320
+86.0 x321
+88.5 x322
+88.5 x323
+97.34 x324
+140.5 x325
+195.18 x326
+93.5 x327
+95.0 x328
+161.21 x329
+268.68 x330
+195.24 x331
+120.07 x332
+139.83 x333
+164.23 x334
+268.0 x335
+265.15 x336
+122.5 x337
+255.25 x338
+537.36 x339
+191.13 x340
+157.96 x341
+127.66 x342
+130.58 x343
+174.69 x344
+91.26 x345
+200.0 x346
+180.0 x347
+156.39 x348
+155.0 x349
+170.0 x350
+140.0 x351
+150.0 x352
+140.0 x353
+140.0 x354
+137.44 x355
+161.26 x356
+120.0 x357
+165.0 x358
+537.55 x359
+537.55 x360
+211.5 x361
+215.02 x362
+108.0 x363
+109.7 x364
+102.89 x365
+105.0 x366
+119.59 x367
+110.59 x368
+50.38 x369
+79.94 x370
+142.35 x371
+97.0 x372
+100.34 x373
+98.25 x374
+96.84 x375
+87.55 x376
+99.8 x377
+88.5 x378
+97.39 x379
+94.5 x380
+132.9 x381
+130.0 x382
+124.0 x383
+90.0 x384
+85.0 x385
+80.0 x386
+80.0 x387
+86.0 x388
+144.94 x389
+134.26 x390
+117.48 x391
+105.0 x392
+99.68 x393
+98.08 x394
+99.64 x395
+112.28 x396
+111.56 x397
+145.6 x398
+118.21 x399
+107.0 x400
+110.0 x401
+110.0 x402
+93.5 x403
+55.4 x404
+80.0 x405
+92.0 x406
+92.0 x407
+85.0 x408
+56.93 x409
+54.5 x410
+55.85 x411
+55.0 x412
+65.03 x413
+108.0 x414
+108.0 x415
+109.5 x416
+109.5 x417
+110.0 x418
+137.0 x419
+108.0 x420
+85.0 x421
+201.38 x422
+197.31 x423
+96.5 x424
+192.32 x425
+127.88 x426
+96.0 x427
+95.0 x428
+97.5 x429
+139.22 x430
+110.85 x431
+100.0 x432
+100.0 x433
+100.0 x434
+100.0 x435
+100.0 x436
+105.0 x437
+115.0 x438
+115.0 x439
+268.44 x440
+180.0 x441
+208.0 x442
+155.56 x443
+101.0 x444
+101.0 x445
+157.56 x446
+268.41 x447
+124.12 x448
+167.79 x449
+213.25 x450
+113.0 x451
+105.0 x452
+113.0 x453
+113.0 x454
+117.0 x455
+107.0 x456
+107.0 x457
+105.0 x458
+105.0 x459
+102.0 x460
+102.0 x461
+102.0 x462
+268.25 x463
+58.0 x464
+10.02 x465
+72.91 x466
+89.09 x467
+99.28 x468
+496.5 x469
+89.39 x470
+100.0 x471
+102.5 x472
+26.5 x473
+35.09 x474
+117.41 x475
+158.0 x476
+95.59 x477
+105.0 x478
+100.5 x479
+113.77 x480
+135.0 x481
+114.0 x482
+116.0 x483
+110.5 x484
+110.5 x485
+110.0 x486
+108.0 x487
+255.19 x488
+95.0 x489
+115.64 x490
+108.12 x491
+104.69 x492
+60.0 x493
+45.0 x494
+175.77 x495
+80.0 x496
+95.12 x497
+45.0 x498
+37.88 x499
+50.0 x500
+98.5 x501
+194.56 x502
+214.67 x503
+120.5 x504
+114.0 x505
+114.0 x506
+146.43 x507
+147.58 x508
+402.5 x509
+402.5 x510
+283.53 x511
+283.53 x512
+283.53 x513
+228.48 x514
+201.27 x515
+182.46 x516
+106.5 x517
+28.0 x518
+143.5 x519
+201.25 x520
+115.0 x521
+111.0 x522
+96.5 x523
+100.0 x524
+604.25 x525
+4699.75 x526
+267.89 x527
+104.53 x528
+335.7 x529
+574.51 x530
+120.5 x531
+89.08 x532
+35.0 x533
+31.5 x534
+75.41 x535
+91.0 x536
+108.62 x537
+120.84 x538
+85.0 x539
+88.0 x540
+56.0 x541
+10.61 x542
+14.9 x543
+34.0 x544
+90.5 x545
+105.63 x546
+101.0 x547
+98.0 x548
+97.5 x549
+97.5 x550
+85.5 x551
+51.5 x552
+38.0 x553
+30.0 x554
+15.5 x555
+29.0 x556
+93.02 x557
+150.0 x558
+150.93 x559
+161.13 x560
+18.0 x561
+18.0 x562
+18.0 x563
+51.0 x564
+24.32 x565
+402.82 x566
+50.0 x567
+40.0 x568
+55.06 x569
+7.0 x570
-4.0 x571
+59.97 x572
+27.36 x573
+5.0 x574
+12.09 x575
+42.0 x576
+45.0 x577
+55.5 x578
+70.5 x579
+55.5 x580
+54.0 x581
+52.5 x582
+60.27 x583
+26.91 x584
+12.51 x585
-19.96 x587
-20.03 x588
+44.5 x589
+62.29 x590
+71.86 x591
+92.0 x592
+92.0 x593
+77.0 x594
+77.0 x595
-8.0 x596
-10.0 x597
-20.0 x598
-36.24 x599
-36.24 x600
-29.53 x601
+6.6 x602
+27.92 x603
+81.81 x604
+88.5 x605
+112.0 x606
+112.0 x607
+112.0 x608
+74.0 x609
+61.01 x610
+64.22 x611
+14.0 x612
+84.82 x613
+97.6 x614
+66.5 x615
+58.0 x616
+47.0 x617
+50.2 x618
+48.5 x619
+63.07 x620
+73.38 x621
+84.63 x622
+75.0 x623
+87.66 x624
+78.41 x625
+75.25 x626
+77.93 x627
+101.0 x628
+153.74 x629
+82.5 x630
+137.79 x631
+155.0 x632
+63.36 x633
+70.5 x634
+92.0 x635


s.t.

c0:
+1.0 x0
-1.0 x636
= 0.968999981880188
c1:
+1.0 x1
-1.0 x636
= 2.0139999389648438
c2:
+1.0 x2
-1.0 x636
= 2.0309998989105225
c3:
+1.0 x3
-1.0 x636
= 1.9670000076293945
c4:
+1.0 x4
-1.0 x636
= 1.840999960899353
c5:
+1.0 x5
-1.0 x636
= 1.6690000295639038
c6:
+1.0 x6
-1.0 x636
= 1.5010000467300415
c7:
+1.0 x7
-1.0 x636
= 1.4210000038146973
c8:
+1.0 x8
-1.0 x636
= 1.3619999885559082
c9:
-1.0 x636
+1.0 x9
= 1.0160000324249268
c10:
+1.0 x10
-1.0 x636
= 1.190000057220459
c11:
+1.0 x11
-1.0 x636
= 1.1419999599456787
c12:
-1.0 x636
+1.0 x12
= 1.0759999752044678
c13:
+1.0 x13
-1.0 x636
= 0.9980000257492065
c14:
+1.0 x14
-1.0 x636
= 0.9190000295639038
c15:
+1.0 x15
-1.0 x636
= 0.8360000252723694
c16:
+1.0 x16
-1.0 x636
= 0.7570000290870667
c17:
+1.0 x17
-1.0 x636
= 0.6800000071525574
c18:
+1.0 x18
-1.0 x636
= 0.625
c19:
-1.0 x636
+1.0 x19
= 0.5849999785423279
c20:
-1.0 x636
+1.0 x20
= 0.40700000524520874
c21:
-1.0 x636
+1.0 x21
= 0.4230000078678131
c22:
-1.0 x636
+1.0 x22
= 0.46000000834465027
c23:
-1.0 x636
+1.0 x23
= 0.25099998712539673
c24:
-1.0 x636
+1.0 x24
= 0.21799999475479126
c25:
-1.0 x636
+1.0 x25
= 0.1850000023841858
c26:
+1.0 x26
-1.0 x636
= 0.7889999747276306
c27:
-1.0 x636
+1.0 x27
= 0.30399999022483826
c28:
-1.0 x636
+1.0 x28
= 0.9980000257492065
c29:
+1.0 x29
-1.0 x636
= 0.9990000128746033
c30:
+1.0 x30
-1.0 x636
= 1.0119999647140503
c31:
-1.0 x636
+1.0 x31
= 1.034000039100647
c32:
-1.0 x636
+1.0 x32
= 1.0420000553131104
c33:
-1.0 x636
+1.0 x33
= 1.0410000085830688
c34:
+1.0 x34
-1.0 x636
= 0.6919999718666077
c35:
-1.0 x636
+1.0 x35
= 0.734000027179718
c36:
+1.0 x36
-1.0 x636
= 0.7649999856948853
c37:
-1.0 x636
+1.0 x37
= 0.7940000295639038
c38:
-1.0 x636
+1.0 x38
= 0.7900000214576721
c39:
-1.0 x636
+1.0 x39
= 4.3460001945495605
c40:
-1.0 x636
+1.0 x40
= 0.953000009059906
c41:
-1.0 x636
+1.0 x41
= 0.9700000286102295
c42:
-1.0 x636
+1.0 x42
= 0.996999979019165
c43:
-1.0 x636
+1.0 x43
= 0.9430000185966492
c44:
-1.0 x636
+1.0 x44
= 0.8529999852180481
c45:
+1.0 x45
-1.0 x636
= 0.6589999794960022
c46:
+1.0 x46
-1.0 x636
= 0.6620000004768372
c47:
-1.0 x636
+1.0 x47
= 0.8679999709129333
c48:
+1.0 x48
-1.0 x636
= 0.4020000100135803
c49:
+1.0 x49
-1.0 x636
= 0.42399999499320984
c50:
-1.0 x636
+1.0 x50
= 1.406000018119812
c51:
-1.0 x636
+1.0 x51
= 1.88100004196167
c52:
-1.0 x636
+1.0 x52
= 1.8669999837875366
c53:
-1.0 x636
+1.0 x53
= 1.3769999742507935
c54:
+1.0 x54
-1.0 x636
= 2.5460000038146973
c55:
+1.0 x55
-1.0 x636
= 2.0950000286102295
c56:
-1.0 x636
+1.0 x56
= 1.0080000162124634
c57:
+1.0 x57
-1.0 x636
= 0.8930000066757202
c58:
+1.0 x58
-1.0 x636
= 0.7699999809265137
c59:
+1.0 x59
-1.0 x636
= 0.6660000085830688
c60:
+1.0 x60
-1.0 x636
= 1.0399999618530273
c61:
+1.0 x61
-1.0 x636
= 1.0440000295639038
c62:
+1.0 x62
-1.0 x636
= 0.8230000138282776
c63:
+1.0 x63
-1.0 x636
= 1.1959999799728394
c64:
+1.0 x64
-1.0 x636
= 1.2419999837875366
c65:
-1.0 x636
+1.0 x65
= 1.3179999589920044
c66:
-1.0 x636
+1.0 x66
= 1.371000051498413
c67:
-1.0 x636
+1.0 x67
= 1.4270000457763672
c68:
+1.0 x68
-1.0 x636
= 1.4520000219345093
c69:
+1.0 x69
-1.0 x636
= 1.4730000495910645
c70:
+1.0 x70
-1.0 x636
= 1.468000054359436
c71:
+1.0 x71
-1.0 x636
= 1.61899995803833
c72:
-1.0 x636
+1.0 x72
= 1.7869999408721924
c73:
-1.0 x636
+1.0 x73
= 2.006999969482422
c74:
+1.0 x74
-1.0 x636
= 2.23799991607666
c75:
-1.0 x636
+1.0 x75
= 2.431999921798706
c76:
-1.0 x636
+1.0 x76
= 2.5139999389648438
c77:
-1.0 x636
+1.0 x77
= 2.381999969482422
c78:
-1.0 x636
+1.0 x78
= 0.41999998688697815
c79:
+1.0 x79
-1.0 x636
= 0.3790000081062317
c80:
+1.0 x80
-1.0 x636
= 0.4090000092983246
c81:
+1.0 x81
-1.0 x636
= 0.6710000038146973
c82:
+1.0 x82
-1.0 x636
= 2.2130000591278076
c83:
-1.0 x636
+1.0 x83
= 2.450000047683716
c84:
-1.0 x636
+1.0 x84
= 2.615999937057495
c85:
+1.0 x85
-1.0 x636
= 3.246000051498413
c86:
+1.0 x86
-1.0 x636
= 1.190000057220459
c87:
+1.0 x87
-1.0 x636
= 1.0759999752044678
c88:
+1.0 x88
-1.0 x636
= 1.0110000371932983
c89:
+1.0 x89
-1.0 x636
= 1.0670000314712524
c90:
+1.0 x90
-1.0 x636
= 1.2059999704360962
c91:
+1.0 x91
-1.0 x636
= 1.4470000267028809
c92:
-1.0 x636
+1.0 x92
= 1.7130000591278076
c93:
-1.0 x636
+1.0 x93
= 1.965999960899353
c94:
-1.0 x636
+1.0 x94
= 2.0859999656677246
c95:
-1.0 x636
+1.0 x95
= 2.687000036239624
c96:
+1.0 x96
-1.0 x636
= 1.3910000324249268
c97:
+1.0 x97
-1.0 x636
= 1.159000039100647
c98:
+1.0 x98
-1.0 x636
= 0.9810000061988831
c99:
+1.0 x99
-1.0 x636
= 0.878000020980835
c100:
+1.0 x100
-1.0 x636
= 0.7860000133514404
c101:
+1.0 x101
-1.0 x636
= 0.5479999780654907
c102:
-1.0 x636
+1.0 x102
= 0.6230000257492065
c103:
-1.0 x636
+1.0 x103
= 1.5089999437332153
c104:
-1.0 x636
+1.0 x104
= 1.1660000085830688
c105:
-1.0 x636
+1.0 x105
= 1.187999963760376
c106:
-1.0 x636
+1.0 x106
= 1.1749999523162842
c107:
+1.0 x107
-1.0 x636
= 1.1380000114440918
c108:
-1.0 x636
+1.0 x108
= 1.0839999914169312
c109:
-1.0 x636
+1.0 x109
= 1.003000020980835
c110:
-1.0 x636
+1.0 x110
= 0.8550000190734863
c111:
+1.0 x111
-1.0 x636
= 0.7900000214576721
c112:
-1.0 x636
+1.0 x112
= 0.7250000238418579
c113:
-1.0 x636
+1.0 x113
= 0.3330000042915344
c114:
+1.0 x114
-1.0 x636
= 0.32600000500679016
c115:
-1.0 x636
+1.0 x115
= 0.3319999873638153
c116:
+1.0 x116
-1.0 x636
= 0.36500000953674316
c117:
+1.0 x117
-1.0 x636
= 0.4519999921321869
c118:
+1.0 x118
-1.0 x636
= 0.5109999775886536
c119:
+1.0 x119
-1.0 x636
= 0.5820000171661377
c120:
+1.0 x120
-1.0 x636
= 0.621999979019165
c121:
-1.0 x636
+1.0 x121
= 0.6269999742507935
c122:
+1.0 x122
-1.0 x636
= 0.7129999995231628
c123:
+1.0 x123
-1.0 x636
= 0.7049999833106995
c124:
+1.0 x124
-1.0 x636
= 0.7440000176429749
c125:
-1.0 x636
+1.0 x125
= 0.7649999856948853
c126:
-1.0 x636
+1.0 x126
= 0.7820000052452087
c127:
+1.0 x127
-1.0 x636
= 0.49799999594688416
c128:
+1.0 x128
-1.0 x636
= 0.42500001192092896
c129:
+1.0 x129
-1.0 x636
= 0.4359999895095825
c130:
+1.0 x130
-1.0 x636
= 0.2329999953508377
c131:
+1.0 x131
-1.0 x636
= 0.22699999809265137
c132:
-1.0 x636
+1.0 x132
= 0.5509999990463257
c133:
-1.0 x636
+1.0 x133
= 1.4780000448226929
c134:
-1.0 x636
+1.0 x134
= 1.4259999990463257
c135:
-1.0 x636
+1.0 x135
= 1.4700000286102295
c136:
+1.0 x136
-1.0 x636
= 1.6019999980926514
c137:
+1.0 x137
-1.0 x636
= 1.1160000562667847
c138:
+1.0 x138
-1.0 x636
= 1.5509999990463257
c139:
-1.0 x636
+1.0 x139
= 1.6519999504089355
c140:
+1.0 x140
-1.0 x636
= 1.7079999446868896
c141:
+1.0 x141
-1.0 x636
= 1.7510000467300415
c142:
-1.0 x636
+1.0 x142
= 1.6690000295639038
c143:
+1.0 x143
-1.0 x636
= 1.5839999914169312
c144:
-1.0 x636
+1.0 x144
= 1.4869999885559082
c145:
-1.0 x636
+1.0 x145
= 1.7489999532699585
c146:
+1.0 x146
-1.0 x636
= 0.9549999833106995
c147:
+1.0 x147
-1.0 x636
= 3.8610000610351562
c148:
-1.0 x636
+1.0 x148
= 4.656000137329102
c149:
+1.0 x149
-1.0 x636
= 4.561999797821045
c150:
+1.0 x150
-1.0 x636
= 4.38700008392334
c151:
-1.0 x636
+1.0 x151
= 4.2179999351501465
c152:
+1.0 x152
-1.0 x636
= 2.6600000858306885
c153:
+1.0 x153
-1.0 x636
= 2.440999984741211
c154:
+1.0 x154
-1.0 x636
= 2.1040000915527344
c155:
+1.0 x155
-1.0 x636
= 1.2929999828338623
c156:
+1.0 x156
-1.0 x636
= 1.277999997138977
c157:
-1.0 x636
+1.0 x157
= 1.6540000438690186
c158:
-1.0 x636
+1.0 x158
= 3.744999885559082
c159:
-1.0 x636
+1.0 x159
= 0.8759999871253967
c160:
-1.0 x636
+1.0 x160
= 0.41200000047683716
c161:
-1.0 x636
+1.0 x161
= 0.28700000047683716
c162:
+1.0 x162
-1.0 x636
= 0.20600000023841858
c163:
+1.0 x163
-1.0 x636
= 0.23499999940395355
c164:
+1.0 x164
-1.0 x636
= 0.4970000088214874
c165:
+1.0 x165
-1.0 x636
= 0.7170000076293945
c166:
+1.0 x166
-1.0 x636
= 0.9070000052452087
c167:
-1.0 x636
+1.0 x167
= 0.8339999914169312
c168:
+1.0 x168
-1.0 x636
= 0.8870000243186951
c169:
+1.0 x169
-1.0 x636
= 0.921999990940094
c170:
+1.0 x170
-1.0 x636
= 0.996999979019165
c171:
+1.0 x171
-1.0 x636
= 0.28600001335144043
c172:
-1.0 x636
+1.0 x172
= 0.5299999713897705
c173:
-1.0 x636
+1.0 x173
= 0.8679999709129333
c174:
-1.0 x636
+1.0 x174
= 1.2719999551773071
c175:
-1.0 x636
+1.0 x175
= 1.746999979019165
c176:
+1.0 x176
-1.0 x636
= 2.319999933242798
c177:
-1.0 x636
+1.0 x177
= 0.8489999771118164
c178:
-1.0 x636
+1.0 x178
= 2.1059999465942383
c179:
+1.0 x179
-1.0 x636
= 2.0160000324249268
c180:
+1.0 x180
-1.0 x636
= 3.4590001106262207
c181:
+1.0 x181
-1.0 x636
= 3.1610000133514404
c182:
+1.0 x182
-1.0 x636
= 2.7890000343322754
c183:
-1.0 x636
+1.0 x183
= 2.3480000495910645
c184:
-1.0 x636
+1.0 x184
= 2.2339999675750732
c185:
-1.0 x636
+1.0 x185
= 2.259000062942505
c186:
-1.0 x636
+1.0 x186
= 2.299999952316284
c187:
-1.0 x636
+1.0 x187
= 2.619999885559082
c188:
+1.0 x188
-1.0 x636
= 2.627000093460083
c189:
+1.0 x189
-1.0 x636
= 2.4110000133514404
c190:
+1.0 x190
-1.0 x636
= 2.4200000762939453
c191:
+1.0 x191
-1.0 x636
= 2.437000036239624
c192:
-1.0 x636
+1.0 x192
= 2.3959999084472656
c193:
-1.0 x636
+1.0 x193
= 2.309000015258789
c194:
+1.0 x194
-1.0 x636
= 2.1700000762939453
c195:
+1.0 x195
-1.0 x636
= 1.9709999561309814
c196:
+1.0 x196
-1.0 x636
= 1.8819999694824219
c197:
+1.0 x197
-1.0 x636
= 1.7669999599456787
c198:
+1.0 x198
-1.0 x636
= 1.437999963760376
c199:
+1.0 x199
-1.0 x636
= 1.3849999904632568
c200:
-1.0 x636
+1.0 x200
= 1.1649999618530273
c201:
-1.0 x636
+1.0 x201
= 1.0959999561309814
c202:
-1.0 x636
+1.0 x202
= 1.027999997138977
c203:
+1.0 x203
-1.0 x636
= 0.9539999961853027
c204:
+1.0 x204
-1.0 x636
= 0.7480000257492065
c205:
+1.0 x205
-1.0 x636
= 4.546000003814697
c206:
-1.0 x636
+1.0 x206
= 4.451000213623047
c207:
-1.0 x636
+1.0 x207
= 4.98799991607666
c208:
+1.0 x208
-1.0 x636
= 4.513000011444092
c209:
-1.0 x636
+1.0 x209
= 3.8540000915527344
c210:
-1.0 x636
+1.0 x210
= 0.289000004529953
c211:
-1.0 x636
+1.0 x211
= 0.3659999966621399
c212:
-1.0 x636
+1.0 x212
= 0.38199999928474426
c213:
-1.0 x636
+1.0 x213
= 0.43799999356269836
c214:
-1.0 x636
+1.0 x214
= 0.16599999368190765
c215:
-1.0 x636
+1.0 x215
= 1.0460000038146973
c216:
+1.0 x216
-1.0 x636
= 1.246999979019165
c217:
+1.0 x217
-1.0 x636
= 1.38100004196167
c218:
+1.0 x218
-1.0 x636
= 1.4539999961853027
c219:
+1.0 x219
-1.0 x636
= 1.4859999418258667
c220:
+1.0 x220
-1.0 x636
= 0.6769999861717224
c221:
-1.0 x636
+1.0 x221
= 0.5720000267028809
c222:
+1.0 x222
-1.0 x636
= 0.6150000095367432
c223:
-1.0 x636
+1.0 x223
= 0.9729999899864197
c224:
-1.0 x636
+1.0 x224
= 1.0420000553131104
c225:
+1.0 x225
-1.0 x636
= 1.1619999408721924
c226:
-1.0 x636
+1.0 x226
= 1.1619999408721924
c227:
-1.0 x636
+1.0 x227
= 1.0870000123977661
c228:
-1.0 x636
+1.0 x228
= 1.0080000162124634
c229:
-1.0 x636
+1.0 x229
= 0.14000000059604645
c230:
+1.0 x230
-1.0 x636
= 0.25
c231:
+1.0 x231
-1.0 x636
= 1.4830000400543213
c232:
+1.0 x232
-1.0 x636
= 1.3589999675750732
c233:
+1.0 x233
-1.0 x636
= 1.2769999504089355
c234:
-1.0 x636
+1.0 x234
= 1.225000023841858
c235:
-1.0 x636
+1.0 x235
= 1.1970000267028809
c236:
+1.0 x236
-1.0 x636
= 1.1950000524520874
c237:
+1.0 x237
-1.0 x636
= 1.2269999980926514
c238:
+1.0 x238
-1.0 x636
= 1.1549999713897705
c239:
+1.0 x239
-1.0 x636
= 0.4729999899864197
c240:
-1.0 x636
+1.0 x240
= 0.21799999475479126
c241:
-1.0 x636
+1.0 x241
= 0.17399999499320984
c242:
-1.0 x636
+1.0 x242
= 0.12200000137090683
c243:
-1.0 x636
+1.0 x243
= 0.17100000381469727
c244:
-1.0 x636
+1.0 x244
= 0.1979999989271164
c245:
+1.0 x245
-1.0 x636
= 0.2630000114440918
c246:
+1.0 x246
-1.0 x636
= 0.40400001406669617
c247:
-1.0 x636
+1.0 x247
= 1.0839999914169312
c248:
-1.0 x636
+1.0 x248
= 0.5329999923706055
c249:
-1.0 x636
+1.0 x249
= 0.4399999976158142
c250:
+1.0 x250
-1.0 x636
= 0.47099998593330383
c251:
+1.0 x251
-1.0 x636
= 0.4410000145435333
c252:
-1.0 x636
+1.0 x252
= 0.41100001335144043
c253:
+1.0 x253
-1.0 x636
= 0.36800000071525574
c254:
-1.0 x636
+1.0 x254
= 0.6309999823570251
c255:
+1.0 x255
-1.0 x636
= 0.7099999785423279
c256:
+1.0 x256
-1.0 x636
= 0.8579999804496765
c257:
-1.0 x636
+1.0 x257
= 0.19300000369548798
c258:
-1.0 x636
+1.0 x258
= 1.4950000047683716
c259:
-1.0 x636
+1.0 x259
= 1.5499999523162842
c260:
+1.0 x260
-1.0 x636
= 1.5470000505447388
c261:
+1.0 x261
-1.0 x636
= 1.5529999732971191
c262:
+1.0 x262
-1.0 x636
= 1.555999994277954
c263:
+1.0 x263
-1.0 x636
= 1.4559999704360962
c264:
+1.0 x264
-1.0 x636
= 1.5080000162124634
c265:
+1.0 x265
-1.0 x636
= 1.6030000448226929
c266:
+1.0 x266
-1.0 x636
= 1.7239999771118164
c267:
+1.0 x267
-1.0 x636
= 1.8559999465942383
c268:
+1.0 x268
-1.0 x636
= 2.0280001163482666
c269:
+1.0 x269
-1.0 x636
= 2.2179999351501465
c270:
+1.0 x270
-1.0 x636
= 2.359999895095825
c271:
+1.0 x271
-1.0 x636
= 2.802999973297119
c272:
+1.0 x272
-1.0 x636
= 2.8970000743865967
c273:
+1.0 x273
-1.0 x636
= 2.9860000610351562
c274:
+1.0 x274
-1.0 x636
= 3.065000057220459
c275:
+1.0 x275
-1.0 x636
= 3.1549999713897705
c276:
-1.0 x636
+1.0 x276
= 2.385999917984009
c277:
-1.0 x636
+1.0 x277
= 2.3469998836517334
c278:
-1.0 x636
+1.0 x278
= 2.486999988555908
c279:
+1.0 x279
-1.0 x636
= 2.6530001163482666
c280:
-1.0 x636
+1.0 x280
= 2.7690000534057617
c281:
-1.0 x636
+1.0 x281
= 3.009000062942505
c282:
-1.0 x636
+1.0 x282
= 3.2200000286102295
c283:
-1.0 x636
+1.0 x283
= 3.2869999408721924
c284:
-1.0 x636
+1.0 x284
= 3.1619999408721924
c285:
+1.0 x285
-1.0 x636
= 2.9600000381469727
c286:
+1.0 x286
-1.0 x636
= 2.7360000610351562
c287:
-1.0 x636
+1.0 x287
= 2.5439999103546143
c288:
+1.0 x288
-1.0 x636
= 2.4149999618530273
c289:
-1.0 x636
+1.0 x289
= 2.375
c290:
+1.0 x290
-1.0 x636
= 2.421999931335449
c291:
+1.0 x291
-1.0 x636
= 1.3020000457763672
c292:
+1.0 x292
-1.0 x636
= 1.4329999685287476
c293:
-1.0 x636
+1.0 x293
= 1.5709999799728394
c294:
-1.0 x636
+1.0 x294
= 1.7319999933242798
c295:
-1.0 x636
+1.0 x295
= 1.8240000009536743
c296:
+1.0 x296
-1.0 x636
= 1.8890000581741333
c297:
+1.0 x297
-1.0 x636
= 0.6790000200271606
c298:
+1.0 x298
-1.0 x636
= 0.796999990940094
c299:
-1.0 x636
+1.0 x299
= 0.9139999747276306
c300:
+1.0 x300
-1.0 x636
= 1.0240000486373901
c301:
+1.0 x301
-1.0 x636
= 0.9900000095367432
c302:
+1.0 x302
-1.0 x636
= 0.8989999890327454
c303:
-1.0 x636
+1.0 x303
= 0.7059999704360962
c304:
-1.0 x636
+1.0 x304
= 0.5809999704360962
c305:
+1.0 x305
-1.0 x636
= 0.49900001287460327
c306:
+1.0 x306
-1.0 x636
= 0.0430000014603138
c307:
+1.0 x307
-1.0 x636
= 0.04699999839067459
c308:
-1.0 x636
+1.0 x308
= 0.17599999904632568
c309:
+1.0 x309
-1.0 x636
= 0.2240000069141388
c310:
-1.0 x636
+1.0 x310
= 0.3919999897480011
c311:
+1.0 x311
-1.0 x636
= 0.5600000023841858
c312:
+1.0 x312
-1.0 x636
= 0.6800000071525574
c313:
+1.0 x313
-1.0 x636
= 0.3880000114440918
c314:
+1.0 x314
-1.0 x636
= 0.5239999890327454
c315:
+1.0 x315
-1.0 x636
= 0.3499999940395355
c316:
+1.0 x316
-1.0 x636
= 0.3720000088214874
c317:
+1.0 x317
-1.0 x636
= 0.4350000023841858
c318:
+1.0 x636
<= -0.0


bounds

+0.0 <=  x0 <= +7.2
+0.0 <=  x1 <= +7.2
+0.0 <=  x2 <= +7.2
+0.0 <=  x3 <= +7.2
+0.0 <=  x4 <= +7.2
+0.0 <=  x5 <= +7.2
+0.0 <=  x6 <= +7.2
+0.0 <=  x7 <= +7.2
+0.0 <=  x8 <= +7.2
+0.0 <=  x9 <= +7.2
+0.0 <=  x10 <= +7.2
+0.0 <=  x11 <= +7.2
+0.0 <=  x12 <= +7.2
+0.0 <=  x13 <= +7.2
+0.0 <=  x14 <= +7.2
+0.0 <=  x15 <= +7.2
+0.0 <=  x16 <= +7.2
+0.0 <=  x17 <= +7.2
+0.0 <=  x18 <= +7.2
+0.0 <=  x19 <= +7.2
+0.0 <=  x20 <= +7.2
+0.0 <=  x21 <= +7.2
+0.0 <=  x22 <= +7.2
+0.0 <=  x23 <= +7.2
+0.0 <=  x24 <= +7.2
+0.0 <=  x25 <= +7.2
+0.0 <=  x26 <= +7.2
+0.0 <=  x27 <= +7.2
+0.0 <=  x28 <= +7.2
+0.0 <=  x29 <= +7.2
+0.0 <=  x30 <= +7.2
+0.0 <=  x31 <= +7.2
+0.0 <=  x32 <= +7.2
+0.0 <=  x33 <= +7.2
+0.0 <=  x34 <= +7.2
+0.0 <=  x35 <= +7.2
+0.0 <=  x36 <= +7.2
+0.0 <=  x37 <= +7.2
+0.0 <=  x38 <= +7.2
+0.0 <=  x39 <= +7.2
+0.0 <=  x40 <= +7.2
+0.0 <=  x41 <= +7.2
+0.0 <=  x42 <= +7.2
+0.0 <=  x43 <= +7.2
+0.0 <=  x44 <= +7.2
+0.0 <=  x45 <= +7.2
+0.0 <=  x46 <= +7.2
+0.0 <=  x47 <= +7.2
+0.0 <=  x48 <= +7.2
+0.0 <=  x49 <= +7.2
+0.0 <=  x50 <= +7.2
+0.0 <=  x51 <= +7.2
+0.0 <=  x52 <= +7.2
+0.0 <=  x53 <= +7.2
+0.0 <=  x54 <= +7.2
+0.0 <=  x55 <= +7.2
+0.0 <=  x56 <= +7.2
+0.0 <=  x57 <= +7.2
+0.0 <=  x58 <= +7.2
+0.0 <=  x59 <= +7.2
+0.0 <=  x60 <= +7.2
+0.0 <=  x61 <= +7.2
+0.0 <=  x62 <= +7.2
+0.0 <=  x63 <= +7.2
+0.0 <=  x64 <= +7.2
+0.0 <=  x65 <= +7.2
+0.0 <=  x66 <= +7.2
+0.0 <=  x67 <= +7.2
+0.0 <=  x68 <= +7.2
+0.0 <=  x69 <= +7.2
+0.0 <=  x70 <= +7.2
+0.0 <=  x71 <= +7.2
+0.0 <=  x72 <= +7.2
+0.0 <=  x73 <= +7.2
+0.0 <=  x74 <= +7.2
+0.0 <=  x75 <= +7.2
+0.0 <=  x76 <= +7.2
+0.0 <=  x77 <= +7.2
+0.0 <=  x78 <= +7.2
+0.0 <=  x79 <= +7.2
+0.0 <=  x80 <= +7.2
+0.0 <=  x81 <= +7.2
+0.0 <=  x82 <= +7.2
+0.0 <=  x83 <= +7.2
+0.0 <=  x84 <= +7.2
+0.0 <=  x85 <= +7.2
+0.0 <=  x86 <= +7.2
+0.0 <=  x87 <= +7.2
+0.0 <=  x88 <= +7.2
+0.0 <=  x89 <= +7.2
+0.0 <=  x90 <= +7.2
+0.0 <=  x91 <= +7.2
+0.0 <=  x92 <= +7.2
+0.0 <=  x93 <= +7.2
+0.0 <=  x94 <= +7.2
+0.0 <=  x95 <= +7.2
+0.0 <=  x96 <= +7.2
+0.0 <=  x97 <= +7.2
+0.0 <=  x98 <= +7.2
+0.0 <=  x99 <= +7.2
+0.0 <=  x100 <= +7.2
+0.0 <=  x101 <= +7.2
+0.0 <=  x102 <= +7.2
+0.0 <=  x103 <= +7.2
+0.0 <=  x104 <= +7.2
+0.0 <=  x105 <= +7.2
+0.0 <=  x106 <= +7.2
+0.0 <=  x107 <= +7.2
+0.0 <=  x108 <= +7.2
+0.0 <=  x109 <= +7.2
+0.0 <=  x110 <= +7.2
+0.0 <=  x111 <= +7.2
+0.0 <=  x112 <= +7.2
+0.0 <=  x113 <= +7.2
+0.0 <=  x114 <= +7.2
+0.0 <=  x115 <= +7.2
+0.0 <=  x116 <= +7.2
+0.0 <=  x117 <= +7.2
+0.0 <=  x118 <= +7.2
+0.0 <=  x119 <= +7.2
+0.0 <=  x120 <= +7.2
+0.0 <=  x121 <= +7.2
+0.0 <=  x122 <= +7.2
+0.0 <=  x123 <= +7.2
+0.0 <=  x124 <= +7.2
+0.0 <=  x125 <= +7.2
+0.0 <=  x126 <= +7.2
+0.0 <=  x127 <= +7.2
+0.0 <=  x128 <= +7.2
+0.0 <=  x129 <= +7.2
+0.0 <=  x130 <= +7.2
+0.0 <=  x131 <= +7.2
+0.0 <=  x132 <= +7.2
+0.0 <=  x133 <= +7.2
+0.0 <=  x134 <= +7.2
+0.0 <=  x135 <= +7.2
+0.0 <=  x136 <= +7.2
+0.0 <=  x137 <= +7.2
+0.0 <=  x138 <= +7.2
+0.0 <=  x139 <= +7.2
+0.0 <=  x140 <= +7.2
+0.0 <=  x141 <= +7.2
+0.0 <=  x142 <= +7.2
+0.0 <=  x143 <= +7.2
+0.0 <=  x144 <= +7.2
+0.0 <=  x145 <= +7.2
+0.0 <=  x146 <= +7.2
+0.0 <=  x147 <= +7.2
+0.0 <=  x148 <= +7.2
+0.0 <=  x149 <= +7.2
+0.0 <=  x150 <= +7.2
+0.0 <=  x151 <= +7.2
+0.0 <=  x152 <= +7.2
+0.0 <=  x153 <= +7.2
+0.0 <=  x154 <= +7.2
+0.0 <=  x155 <= +7.2
+0.0 <=  x156 <= +7.2
+0.0 <=  x157 <= +7.2
+0.0 <=  x158 <= +7.2
+0.0 <=  x159 <= +7.2
+0.0 <=  x160 <= +7.2
+0.0 <=  x161 <= +7.2
+0.0 <=  x162 <= +7.2
+0.0 <=  x163 <= +7.2
+0.0 <=  x164 <= +7.2
+0.0 <=  x165 <= +7.2
+0.0 <=  x166 <= +7.2
+0.0 <=  x167 <= +7.2
+0.0 <=  x168 <= +7.2
+0.0 <=  x169 <= +7.2
+0.0 <=  x170 <= +7.2
+0.0 <=  x171 <= +7.2
+0.0 <=  x172 <= +7.2
+0.0 <=  x173 <= +7.2
+0.0 <=  x174 <= +7.2
+0.0 <=  x175 <= +7.2
+0.0 <=  x176 <= +7.2
+0.0 <=  x177 <= +7.2
+0.0 <=  x178 <= +7.2
+0.0 <=  x179 <= +7.2
+0.0 <=  x180 <= +7.2
+0.0 <=  x181 <= +7.2
+0.0 <=  x182 <= +7.2
+0.0 <=  x183 <= +7.2
+0.0 <=  x184 <= +7.2
+0.0 <=  x185 <= +7.2
+0.0 <=  x186 <= +7.2
+0.0 <=  x187 <= +7.2
+0.0 <=  x188 <= +7.2
+0.0 <=  x189 <= +7.2
+0.0 <=  x190 <= +7.2
+0.0 <=  x191 <= +7.2
+0.0 <=  x192 <= +7.2
+0.0 <=  x193 <= +7.2
+0.0 <=  x194 <= +7.2
+0.0 <=  x195 <= +7.2
+0.0 <=  x196 <= +7.2
+0.0 <=  x197 <= +7.2
+0.0 <=  x198 <= +7.2
+0.0 <=  x199 <= +7.2
+0.0 <=  x200 <= +7.2
+0.0 <=  x201 <= +7.2
+0.0 <=  x202 <= +7.2
+0.0 <=  x203 <= +7.2
+0.0 <=  x204 <= +7.2
+0.0 <=  x205 <= +7.2
+0.0 <=  x206 <= +7.2
+0.0 <=  x207 <= +7.2
+0.0 <=  x208 <= +7.2
+0.0 <=  x209 <= +7.2
+0.0 <=  x210 <= +7.2
+0.0 <=  x211 <= +7.2
+0.0 <=  x212 <= +7.2
+0.0 <=  x213 <= +7.2
+0.0 <=  x214 <= +7.2
+0.0 <=  x215 <= +7.2
+0.0 <=  x216 <= +7.2
+0.0 <=  x217 <= +7.2
+0.0 <=  x218 <= +7.2
+0.0 <=  x219 <= +7.2
+0.0 <=  x220 <= +7.2
+0.0 <=  x221 <= +7.2
+0.0 <=  x222 <= +7.2
+0.0 <=  x223 <= +7.2
+0.0 <=  x224 <= +7.2
+0.0 <=  x225 <= +7.2
+0.0 <=  x226 <= +7.2
+0.0 <=  x227 <= +7.2
+0.0 <=  x228 <= +7.2
+0.0 <=  x229 <= +7.2
+0.0 <=  x230 <= +7.2
+0.0 <=  x231 <= +7.2
+0.0 <=  x232 <= +7.2
+0.0 <=  x233 <= +7.2
+0.0 <=  x234 <= +7.2
+0.0 <=  x235 <= +7.2
+0.0 <=  x236 <= +7.2
+0.0 <=  x237 <= +7.2
+0.0 <=  x238 <= +7.2
+0.0 <=  x239 <= +7.2
+0.0 <=  x240 <= +7.2
+0.0 <=  x241 <= +7.2
+0.0 <=  x242 <= +7.2
+0.0 <=  x243 <= +7.2
+0.0 <=  x244 <= +7.2
+0.0 <=  x245 <= +7.2
+0.0 <=  x246 <= +7.2
+0.0 <=  x247 <= +7.2
+0.0 <=  x248 <= +7.2
+0.0 <=  x249 <= +7.2
+0.0 <=  x250 <= +7.2
+0.0 <=  x251 <= +7.2
+0.0 <=  x252 <= +7.2
+0.0 <=  x253 <= +7.2
+0.0 <=  x254 <= +7.2
+0.0 <=  x255 <= +7.2
+0.0 <=  x256 <= +7.2
+0.0 <=  x257 <= +7.2
+0.0 <=  x258 <= +7.2
+0.0 <=  x259 <= +7.2
+0.0 <=  x260 <= +7.2
+0.0 <=  x261 <= +7.2
+0.0 <=  x262 <= +7.2
+0.0 <=  x263 <= +7.2
+0.0 <=  x264 <= +7.2
+0.0 <=  x265 <= +7.2
+0.0 <=  x266 <= +7.2
+0.0 <=  x267 <= +7.2
+0.0 <=  x268 <= +7.2
+0.0 <=  x269 <= +7.2
+0.0 <=  x270 <= +7.2
+0.0 <=  x271 <= +7.2
+0.0 <=  x272 <= +7.2
+0.0 <=  x273 <= +7.2
+0.0 <=  x274 <= +7.2
+0.0 <=  x275 <= +7.2
+0.0 <=  x276 <= +7.2
+0.0 <=  x277 <= +7.2
+0.0 <=  x278 <= +7.2
+0.0 <=  x279 <= +7.2
+0.0 <=  x280 <= +7.2
+0.0 <=  x281 <= +7.2
+0.0 <=  x282 <= +7.2
+0.0 <=  x283 <= +7.2
+0.0 <=  x284 <= +7.2
+0.0 <=  x285 <= +7.2
+0.0 <=  x286 <= +7.2
+0.0 <=  x287 <= +7.2
+0.0 <=  x288 <= +7.2
+0.0 <=  x289 <= +7.2
+0.0 <=  x290 <= +7.2
+0.0 <=  x291 <= +7.2
+0.0 <=  x292 <= +7.2
+0.0 <=  x293 <= +7.2
+0.0 <=  x294 <= +7.2
+0.0 <=  x295 <= +7.2
+0.0 <=  x296 <= +7.2
+0.0 <=  x297 <= +7.2
+0.0 <=  x298 <= +7.2
+0.0 <=  x299 <= +7.2
+0.0 <=  x300 <= +7.2
+0.0 <=  x301 <= +7.2
+0.0 <=  x302 <= +7.2
+0.0 <=  x303 <= +7.2
+0.0 <=  x304 <= +7.2
+0.0 <=  x305 <= +7.2
+0.0 <=  x306 <= +7.2
+0.0 <=  x307 <= +7.2
+0.0 <=  x308 <= +7.2
+0.0 <=  x309 <= +7.2
+0.0 <=  x310 <= +7.2
+0.0 <=  x311 <= +7.2
+0.0 <=  x312 <= +7.2
+0.0 <=  x313 <= +7.2
+0.0 <=  x314 <= +7.2
+0.0 <=  x315 <= +7.2
+0.0 <=  x316 <= +7.2
+0.0 <=  x317 <= +7.2
-7.2 <=  x318 <= +7.2
-7.2 <=  x319 <= +7.2
-7.2 <=  x320 <= +7.2
-7.2 <=  x321 <= +7.2
-7.2 <=  x322 <= +7.2
-7.2 <=  x323 <= +7.2
-7.2 <=  x324 <= +7.2
-7.2 <=  x325 <= +7.2
-7.2 <=  x326 <= +7.2
-7.2 <=  x327 <= +7.2
-7.2 <=  x328 <= +7.2
-7.2 <=  x329 <= +7.2
-7.2 <=  x330 <= +7.2
-7.2 <=  x331 <= +7.2
-7.2 <=  x332 <= +7.2
-7.2 <=  x333 <= +7.2
-7.2 <=  x334 <= +7.2
-7.2 <=  x335 <= +7.2
-7.2 <=  x336 <= +7.2
-7.2 <=  x337 <= +7.2
-7.2 <=  x338 <= +7.2
-7.2 <=  x339 <= +7.2
-7.2 <=  x340 <= +7.2
-7.2 <=  x341 <= +7.2
-7.2 <=  x342 <= +7.2
-7.2 <=  x343 <= +7.2
-7.2 <=  x344 <= +7.2
-7.2 <=  x345 <= +7.2
-7.2 <=  x346 <= +7.2
-7.2 <=  x347 <= +7.2
-7.2 <=  x348 <= +7.2
-7.2 <=  x349 <= +7.2
-7.2 <=  x350 <= +7.2
-7.2 <=  x351 <= +7.2
-7.2 <=  x352 <= +7.2
-7.2 <=  x353 <= +7.2
-7.2 <=  x354 <= +7.2
-7.2 <=  x355 <= +7.2
-7.2 <=  x356 <= +7.2
-7.2 <=  x357 <= +7.2
-7.2 <=  x358 <= +7.2
-7.2 <=  x359 <= +7.2
-7.2 <=  x360 <= +7.2
-7.2 <=  x361 <= +7.2
-7.2 <=  x362 <= +7.2
-7.2 <=  x363 <= +7.2
-7.2 <=  x364 <= +7.2
-7.2 <=  x365 <= +7.2
-7.2 <=  x366 <= +7.2
-7.2 <=  x367 <= +7.2
-7.2 <=  x368 <= +7.2
-7.2 <=  x369 <= +7.2
-7.2 <=  x370 <= +7.2
-7.2 <=  x371 <= +7.2
-7.2 <=  x372 <= +7.2
-7.2 <=  x373 <= +7.2
-7.2 <=  x374 <= +7.2
-7.2 <=  x375 <= +7.2
-7.2 <=  x376 <= +7.2
-7.2 <=  x377 <= +7.2
-7.2 <=  x378 <= +7.2
-7.2 <=  x379 <= +7.2
-7.2 <=  x380 <= +7.2
-7.2 <=  x381 <= +7.2
-7.2 <=  x382 <= +7.2
-7.2 <=  x383 <= +7.2
-7.2 <=  x384 <= +7.2
-7.2 <=  x385 <= +7.2
-7.2 <=  x386 <= +7.2
-7.2 <=  x387 <= +7.2
-7.2 <=  x388 <= +7.2
-7.2 <=  x389 <= +7.2
-7.2 <=  x390 <= +7.2
-7.2 <=  x391 <= +7.2
-7.2 <=  x392 <= +7.2
-7.2 <=  x393 <= +7.2
-7.2 <=  x394 <= +7.2
-7.2 <=  x395 <= +7.2
-7.2 <=  x396 <= +7.2
-7.2 <=  x397 <= +7.2
-7.2 <=  x398 <= +7.2
-7.2 <=  x399 <= +7.2
-7.2 <=  x400 <= +7.2
-7.2 <=  x401 <= +7.2
-7.2 <=  x402 <= +7.2
-7.2 <=  x403 <= +7.2
-7.2 <=  x404 <= +7.2
-7.2 <=  x405 <= +7.2
-7.2 <=  x406 <= +7.2
-7.2 <=  x407 <= +7.2
-7.2 <=  x408 <= +7.2
-7.2 <=  x409 <= +7.2
-7.2 <=  x410 <= +7.2
-7.2 <=  x411 <= +7.2
-7.2 <=  x412 <= +7.2
-7.2 <=  x413 <= +7.2
-7.2 <=  x414 <= +7.2
-7.2 <=  x415 <= +7.2
-7.2 <=  x416 <= +7.2
-7.2 <=  x417 <= +7.2
-7.2 <=  x418 <= +7.2
-7.2 <=  x419 <= +7.2
-7.2 <=  x420 <= +7.2
-7.2 <=  x421 <= +7.2
-7.2 <=  x422 <= +7.2
-7.2 <=  x423 <= +7.2
-7.2 <=  x424 <= +7.2
-7.2 <=  x425 <= +7.2
-7.2 <=  x426 <= +7.2
-7.2 <=  x427 <= +7.2
-7.2 <=  x428 <= +7.2
-7.2 <=  x429 <= +7.2
-7.2 <=  x430 <= +7.2
-7.2 <=  x431 <= +7.2
-7.2 <=  x432 <= +7.2
-7.2 <=  x433 <= +7.2
-7.2 <=  x434 <= +7.2
-7.2 <=  x435 <= +7.2
-7.2 <=  x436 <= +7.2
-7.2 <=  x437 <= +7.2
-7.2 <=  x438 <= +7.2
-7.2 <=  x439 <= +7.2
-7.2 <=  x440 <= +7.2
-7.2 <=  x441 <= +7.2
-7.2 <=  x442 <= +7.2
-7.2 <=  x443 <= +7.2
-7.2 <=  x444 <= +7.2
-7.2 <=  x445 <= +7.2
-7.2 <=  x446 <= +7.2
-7.2 <=  x447 <= +7.2
-7.2 <=  x448 <= +7.2
-7.2 <=  x449 <= +7.2
-7.2 <=  x450 <= +7.2
-7.2 <=  x451 <= +7.2
-7.2 <=  x452 <= +7.2
-7.2 <=  x453 <= +7.2
-7.2 <=  x454 <= +7.2
-7.2 <=  x455 <= +7.2
-7.2 <=  x456 <= +7.2
-7.2 <=  x457 <= +7.2
-7.2 <=  x458 <= +7.2
-7.2 <=  x459 <= +7.2
-7.2 <=  x460 <= +7.2
-7.2 <=  x461 <= +7.2
-7.2 <=  x462 <= +7.2
-7.2 <=  x463 <= +7.2
-7.2 <=  x464 <= +7.2
-7.2 <=  x465 <= +7.2
-7.2 <=  x466 <= +7.2
-7.2 <=  x467 <= +7.2
-7.2 <=  x468 <= +7.2
-7.2 <=  x469 <= +7.2
-7.2 <=  x470 <= +7.2
-7.2 <=  x471 <= +7.2
-7.2 <=  x472 <= +7.2
-7.2 <=  x473 <= +7.2
-7.2 <=  x474 <= +7.2
-7.2 <=  x475 <= +7.2
-7.2 <=  x476 <= +7.2
-7.2 <=  x477 <= +7.2
-7.2 <=  x478 <= +7.2
-7.2 <=  x479 <= +7.2
-7.2 <=  x480 <= +7.2
-7.2 <=  x481 <= +7.2
-7.2 <=  x482 <= +7.2
-7.2 <=  x483 <= +7.2
-7.2 <=  x484 <= +7.2
-7.2 <=  x485 <= +7.2
-7.2 <=  x486 <= +7.2
-7.2 <=  x487 <= +7.2
-7.2 <=  x488 <= +7.2
-7.2 <=  x489 <= +7.2
-7.2 <=  x490 <= +7.2
-7.2 <=  x491 <= +7.2
-7.2 <=  x492 <= +7.2
-7.2 <=  x493 <= +7.2
-7.2 <=  x494 <= +7.2
-7.2 <=  x495 <= +7.2
-7.2 <=  x496 <= +7.2
-7.2 <=  x497 <= +7.2
-7.2 <=  x498 <= +7.2
-7.2 <=  x499 <= +7.2
-7.2 <=  x500 <= +7.2
-7.2 <=  x501 <= +7.2
-7.2 <=  x502 <= +7.2
-7.2 <=  x503 <= +7.2
-7.2 <=  x504 <= +7.2
-7.2 <=  x505 <= +7.2
-7.2 <=  x506 <= +7.2
-7.2 <=  x507 <= +7.2
-7.2 <=  x508 <= +7.2
-7.2 <=  x509 <= +7.2
-7.2 <=  x510 <= +7.2
-7.2 <=  x511 <= +7.2
-7.2 <=  x512 <= +7.2
-7.2 <=  x513 <= +7.2
-7.2 <=  x514 <= +7.2
-7.2 <=  x515 <= +7.2
-7.2 <=  x516 <= +7.2
-7.2 <=  x517 <= +7.2
-7.2 <=  x518 <= +7.2
-7.2 <=  x519 <= +7.2
-7.2 <=  x520 <= +7.2
-7.2 <=  x521 <= +7.2
-7.2 <=  x522 <= +7.2
-7.2 <=  x523 <= +7.2
-7.2 <=  x524 <= +7.2
-7.2 <=  x525 <= +7.2
-7.2 <=  x526 <= +7.2
-7.2 <=  x527 <= +7.2
-7.2 <=  x528 <= +7.2
-7.2 <=  x529 <= +7.2
-7.2 <=  x530 <= +7.2
-7.2 <=  x531 <= +7.2
-7.2 <=  x532 <= +7.2
-7.2 <=  x533 <= +7.2
-7.2 <=  x534 <= +7.2
-7.2 <=  x535 <= +7.2
-7.2 <=  x536 <= +7.2
-7.2 <=  x537 <= +7.2
-7.2 <=  x538 <= +7.2
-7.2 <=  x539 <= +7.2
-7.2 <=  x540 <= +7.2
-7.2 <=  x541 <= +7.2
-7.2 <=  x542 <= +7.2
-7.2 <=  x543 <= +7.2
-7.2 <=  x544 <= +7.2
-7.2 <=  x545 <= +7.2
-7.2 <=  x546 <= +7.2
-7.2 <=  x547 <= +7.2
-7.2 <=  x548 <= +7.2
-7.2 <=  x549 <= +7.2
-7.2 <=  x550 <= +7.2
-7.2 <=  x551 <= +7.2
-7.2 <=  x552 <= +7.2
-7.2 <=  x553 <= +7.2
-7.2 <=  x554 <= +7.2
-7.2 <=  x555 <= +7.2
-7.2 <=  x556 <= +7.2
-7.2 <=  x557 <= +7.2
-7.2 <=  x558 <= +7.2
-7.2 <=  x559 <= +7.2
-7.2 <=  x560 <= +7.2
-7.2 <=  x561 <= +7.2
-7.2 <=  x562 <= +7.2
-7.2 <=  x563 <= +7.2
-7.2 <=  x564 <= +7.2
-7.2 <=  x565 <= +7.2
-7.2 <=  x566 <= +7.2
-7.2 <=  x567 <= +7.2
-7.2 <=  x568 <= +7.2
-7.2 <=  x569 <= +7.2
-7.2 <=  x570 <= +7.2
-7.2 <=  x571 <= +7.2
-7.2 <=  x572 <= +7.2
-7.2 <=  x573 <= +7.2
-7.2 <=  x574 <= +7.2
-7.2 <=  x575 <= +7.2
-7.2 <=  x576 <= +7.2
-7.2 <=  x577 <= +7.2
-7.2 <=  x578 <= +7.2
-7.2 <=  x579 <= +7.2
-7.2 <=  x580 <= +7.2
-7.2 <=  x581 <= +7.2
-7.2 <=  x582 <= +7.2
-7.2 <=  x583 <= +7.2
-7.2 <=  x584 <= +7.2
-7.2 <=  x585 <= +7.2
-7.2 <=  x586 <= +7.2
-7.2 <=  x587 <= +7.2
-7.2 <=  x588 <= +7.2
-7.2 <=  x589 <= +7.2
-7.2 <=  x590 <= +7.2
-7.2 <=  x591 <= +7.2
-7.2 <=  x592 <= +7.2
-7.2 <=  x593 <= +7.2
-7.2 <=  x594 <= +7.2
-7.2 <=  x595 <= +7.2
-7.2 <=  x596 <= +7.2
-7.2 <=  x597 <= +7.2
-7.2 <=  x598 <= +7.2
-7.2 <=  x599 <= +7.2
-7.2 <=  x600 <= +7.2
-7.2 <=  x601 <= +7.2
-7.2 <=  x602 <= +7.2
-7.2 <=  x603 <= +7.2
-7.2 <=  x604 <= +7.2
-7.2 <=  x605 <= +7.2
-7.2 <=  x606 <= +7.2
-7.2 <=  x607 <= +7.2
-7.2 <=  x608 <= +7.2
-7.2 <=  x609 <= +7.2
-7.2 <=  x610 <= +7.2
-7.2 <=  x611 <= +7.2
-7.2 <=  x612 <= +7.2
-7.2 <=  x613 <= +7.2
-7.2 <=  x614 <= +7.2
-7.2 <=  x615 <= +7.2
-7.2 <=  x616 <= +7.2
-7.2 <=  x617 <= +7.2
-7.2 <=  x618 <= +7.2
-7.2 <=  x619 <= +7.2
-7.2 <=  x620 <= +7.2
-7.2 <=  x621 <= +7.2
-7.2 <=  x622 <= +7.2
-7.2 <=  x623 <= +7.2
-7.2 <=  x624 <= +7.2
-7.2 <=  x625 <= +7.2
-7.2 <=  x626 <= +7.2
-7.2 <=  x627 <= +7.2
-7.2 <=  x628 <= +7.2
-7.2 <=  x629 <= +7.2
-7.2 <=  x630 <= +7.2
-7.2 <=  x631 <= +7.2
-7.2 <=  x632 <= +7.2
-7.2 <=  x633 <= +7.2
-7.2 <=  x634 <= +7.2
-7.2 <=  x635 <= +7.2
-7.2 <=  x636 <= +7.2
end
